 vasp.5.3.3 18Dez12 (build Oct 30 2014 23:44:25) complex

 executed on             LinuxIFC date 2016.02.26  14:50:37

 INCAR:
 POTCAR:   PAW_PBE Hf_pv 06Sep2000
 POTCAR:   PAW_PBE N 08Apr2002
 POTCAR:   PAW_PBE Hf_pv 06Sep2000
   VRHFIN =Hf: 5p6s5d

   TITEL  = PAW_PBE Hf_pv 06Sep2000
   POMASS =  178.490; ZVAL   =   10.000    mass and valenz
   ENMAX  =  220.342; ENMIN  =  165.256 eV
   QCUT   =   -4.024; QGAM   =    8.049    optimization parameters

   Description
     l     E      TYP  RCUT    TYP  RCUT
     1   .000     23  2.500
     1   .000     23  2.500
     2   .000     23  2.500
     2   .000     23  2.500
     0   .000     23  2.600
     0   .000     23  2.600
     3   .000      7   .000

 POTCAR:   PAW_PBE N 08Apr2002
   VRHFIN =N: s2p3

   TITEL  = PAW_PBE N 08Apr2002
   POMASS =   14.001; ZVAL   =    5.000    mass and valenz
   ENMAX  =  400.000; ENMIN  =  300.000 eV
   QCUT   =   -5.562; QGAM   =   11.124    optimization parameters

   Description
     l     E      TYP  RCUT    TYP  RCUT
     0   .000     23  1.200
     0   .000     23  1.200
     1   .000     23  1.500
     1   .700     23  1.500
     2   .000      7  1.500

 PAW_PBE Hf_pv 06Sep2000                :
 PAW_PBE N 08Apr2002                    :

 POSCAR: SG44HfN10_0GPa_conventionalcell\(2)
  positions in direct lattice
  velocities in cartesian coordinates
 exchange correlation table for  LEXCH =        8
   RHO(1)=    0.500       N(1)  =     2000
   RHO(2)=  100.500       N(2)  =     4000

 ion  position               nearest neighbor table
   1  0.500  0.500  0.721-  15 2.36  16 2.36  17 2.36  18 2.36   7 2.36   8 2.36   9 2.36  10 2.36

   2  0.000  0.000  0.221-  11 2.36  14 2.36  13 2.36  12 2.36   3 2.36   4 2.36   5 2.36   6 2.36

   3  0.809  0.193  0.897-  11 1.33  16 1.35   2 2.36
   4  0.191  0.807  0.897-  12 1.33  15 1.35   2 2.36
   5  0.809  0.807  0.897-  13 1.33  18 1.35   2 2.36
   6  0.191  0.193  0.897-  14 1.33  17 1.35   2 2.36
   7  0.309  0.693  0.397-  15 1.33  12 1.35   1 2.36
   8  0.691  0.307  0.397-  16 1.33  11 1.35   1 2.36
   9  0.309  0.307  0.397-  17 1.33  14 1.35   1 2.36
  10  0.691  0.693  0.397-  18 1.33  13 1.35   1 2.36
  11  0.809  0.193  0.544-   3 1.33   8 1.35   2 2.36
  12  0.191  0.807  0.544-   4 1.33   7 1.35   2 2.36
  13  0.809  0.807  0.544-   5 1.33  10 1.35   2 2.36
  14  0.191  0.193  0.544-   6 1.33   9 1.35   2 2.36
  15  0.309  0.693  0.044-   7 1.33   4 1.35   1 2.36
  16  0.691  0.307  0.044-   8 1.33   3 1.35   1 2.36
  17  0.309  0.307  0.044-   9 1.33   6 1.35   1 2.36
  18  0.691  0.693  0.044-  10 1.33   5 1.35   1 2.36
  19  0.000  0.500  0.369-  21 1.11
  20  0.500  0.000  0.869-  22 1.11
  21  0.000  0.500  0.072-  19 1.11
  22  0.500  0.000  0.572-  20 1.11

  LATTYP: Found a simple orthorhombic cell.
 ALAT       =     3.7553799216
 B/A-ratio  =     1.9791816335
 C/A-ratio  =     1.9900617709

  Lattice vectors:

 A1 = (   0.0000000000,   0.0000000000,  -3.7553799216)
 A2 = (   0.0000000000,  -7.4325789676,   0.0000000000)
 A3 = (  -7.4734380174,   0.0000000000,   0.0000000000)

Analysis of symmetry for initial positions (statically):
 Subroutine PRICEL returns following result:

  LATTYP: Found a body centered orthorhombic cell.
 ALAT       =     3.7553799216
 B/A-ratio  =     1.9791816335
 C/A-ratio  =     1.9900617709

[...]

   2 primitive cells build up your supercell.

 Routine SETGRP: Setting up the symmetry group for a
 simple orthorhombic supercell.

 Subroutine GETGRP returns: Found  4 space group operations
 (whereof  4 operations were pure point group operations)
 out of a pool of  8 trial point group operations.

The static configuration has the point symmetry C_2v.

Analysis of symmetry for dynamics (positions and initial velocities):
 Subroutine PRICEL returns following result:

  LATTYP: Found a body centered orthorhombic cell.
 ALAT       =     3.7553799216
 B/A-ratio  =     1.9791816335
 C/A-ratio  =     1.9900617709

  Lattice vectors:

 A1 = (  -3.7367190087,  -3.7162894838,   1.8776899647)
 A2 = (  -3.7367190087,   3.7162894838,  -1.8776899569)
 A3 = (   3.7367190087,  -3.7162894838,  -1.8776899647)

   2 primitive cells build up your supercell.

 Routine SETGRP: Setting up the symmetry group for a
 simple orthorhombic supercell.

 Subroutine GETGRP returns: Found  4 space group operations
 (whereof  4 operations were pure point group operations)
 out of a pool of  8 trial point group operations.

The dynamic configuration has the point symmetry C_2v.

 irot  :   1
 isymop:   1   0   0
           0   1   0
           0   0   1

 gtrans:     0.0000000     0.0000000     0.0000000

 ptrans:     0.0000000     0.0000000     0.0000000
 rotmap:
 (   1->   1)  (   2->   2)  (   3->   3)  (   4->   4)  (   5->   5)
 (   6->   6)  (   7->   7)  (   8->   8)  (   9->   9)  (  10->  10)
 (  11->  11)  (  12->  12)  (  13->  13)  (  14->  14)  (  15->  15)
 (  16->  16)  (  17->  17)  (  18->  18)  (  19->  19)  (  20->  20)
 (  21->  21)  (  22->  22)

[...]

 irot  :   4
 isymop:  -1   0   0
           0  -1   0
           0   0   1

 gtrans:     0.0000000     0.0000000     0.0000000

[...]

 ptrans:     0.5000000     0.5000000     0.5000000
 rotmap:
 (   1->   2)  (   2->   1)  (   3->   8)  (   4->   7)  (   5->  10)
 (   6->   9)  (   7->   4)  (   8->   3)  (   9->   6)  (  10->   5)
 (  11->  16)  (  12->  15)  (  13->  18)  (  14->  17)  (  15->  12)
 (  16->  11)  (  17->  14)  (  18->  13)  (  19->  20)  (  20->  19)
 (  21->  22)  (  22->  21)

 KPOINTS: k-points along high symmetry lines
  interpolating k-points between supplied coordinates
  k-points in reciprocal lattice
Space group operators:
 irot       det(A)        alpha          n_x          n_y          n_z        tau_x        tau_y        tau_z
    1     1.000000     0.000001     1.000000     0.000000     0.000000     0.000000     0.000000     0.000000
    2    -1.000000   180.000000     1.000000     0.000000     0.000000     0.000000     0.000000     0.000000
    3    -1.000000   179.999999     0.000000     1.000000     0.000000     0.000000     0.000000     0.000000
    4     1.000000   180.000000     0.000000     0.000000     1.000000     0.000000     0.000000     0.000000

 I would recommend the setting:
   dimension x,y,z NGX =    60 NGY =   59 NGZ =   30
 SYSTEM =  SG29HfO2
 POSCAR =  SG44HfN10_0GPa_conventionalcell\(2)

 Startparameter for this run:
   NWRITE =      2    write-flag & timer
   PREC   = accura    normal or accurate (medium, high low for compatibility)
   ISTART =      1    job   : 0-new  1-cont  2-samecut
   ICHARG =     11    charge: 1-file 2-atom 10-const
   ISPIN  =      1    spin polarized calculation?
   LNONCOLLINEAR =      F non collinear calculations
   LSORBIT =      F    spin-orbit coupling
   INIWAV =      1    electr: 0-lowe 1-rand  2-diag
   LASPH  =      F    aspherical Exc in radial PAW
   METAGGA=      F    non-selfconsistent MetaGGA calc.

 Electronic Relaxation 1
   ENCUT  =  600.0 eV  44.10 Ry    6.64 a.u.  14.93 14.84  7.50*2*pi/ulx,y,z
   ENINI  =  600.0     initial cutoff
   ENAUG  =  627.1 eV  augmentation charge cutoff
   NELM   =     60;   NELMIN=  2; NELMDL=  0     # of ELM steps
   EDIFF  = 0.1E-06   stopping-criterion for ELM
   LREAL  =      F    real-space projection
   NLSPLINE    = F    spline interpolate recip. space projectors
   LCOMPAT=      F    compatible to vasp.4.4
   GGA_COMPAT  = T    GGA compatible to vasp.4.4-vasp.4.6
   LMAXPAW     = -100 max onsite density
   LMAXMIX     =    2 max onsite mixed and CHGCAR
   VOSKOWN=      0    Vosko Wilk Nusair interpolation
   ROPT   =    0.00000   0.00000
 Ionic relaxation
   EDIFFG = 0.1E-05   stopping-criterion for IOM
   NSW    =      0    number of steps for IOM
   NBLOCK =      1;   KBLOCK =      1    inner block; outer block
   IBRION =     -1    ionic relax: 0-MD 1-quasi-New 2-CG
   NFREE  =      0    steps in history (QN), initial steepest desc. (CG)
   ISIF   =      2    stress and relaxation
   IWAVPR =     10    prediction:  0-non 1-charg 2-wave 3-comb
   ISYM   =      2    0-nonsym 1-usesym 2-fastsym
   LCORR  =      T    Harris-Foulkes like correction to forces

   POTIM  = 0.5000    time-step for ionic-motion
   TEIN   =    0.0    initial temperature
   TEBEG  =    0.0;   TEEND  =   0.0 temperature during run
   SMASS  =  -3.00    Nose mass-parameter (am)
   estimated Nose-frequenzy (Omega)   =  0.10E-29 period in steps =****** mass=  -0.128E-26a.u.
   SCALEE = 1.0000    scale energy and forces
   NPACO  =    256;   APACO  = 16.0  distance and # of slots for P.C.
   PSTRESS=    0.0 pullay stress

  Mass of Ions in am
   POMASS = 178.49 14.00
  Ionic Valenz
   ZVAL   =  10.00  5.00
  Atomic Wigner-Seitz radii
  virtual crystal weights
   VCA    =   1.00  1.00
   NELECT =     120.0000    total number of electrons
   NUPDOWN=      -1.0000    fix difference up-down

 DOS related values:
   EMIN   =  10.00;   EMAX   =-10.00  energy-range for DOS
   EFERMI =   0.00
   ISMEAR =     1;   SIGMA  =   0.20  broadening in eV -4-tet -1-fermi 0-gaus

 Electronic relaxation 2 (details)
   IALGO  =     38    algorithm
   LDIAG  =      T    sub-space diagonalisation (order eigenvalues)
   LSUBROT=      T    optimize rotation matrix (better conditioning)
   TURBO    =      0    0=normal 1=particle mesh
   IRESTART =      0    0=no restart 2=restart with 2 vectors
   NREBOOT  =      0    no. of reboots
   NMIN     =      0    reboot dimension
   EREF     =   0.00    reference energy to select bands
   IMIX   =      4    mixing-type and parameters
     AMIX     =   0.40;   BMIX     =  1.00
     AMIX_MAG =   1.60;   BMIX_MAG =  1.00
     AMIN     =   0.10
     WC   =   100.;   INIMIX=   1;  MIXPRE=   1;  MAXMIX= -45

 Intra band minimization:
   WEIMIN = 0.0000     energy-eigenvalue tresh-hold
   EBREAK =  0.16E-09  absolut break condition
   DEPER  =   0.30     relativ break condition

   TIME   =   0.40     timestep for ELM

  volume/ion in A,a.u.               =       9.48        63.99
  Fermi-wavevector in a.u.,A,eV,Ry     =   1.361541  2.572939 25.222386  1.853793
  Thomas-Fermi vector in A             =   2.488108

 Write flags
   LWAVE  =      T    write WAVECAR
   LCHARG =      T    write CHGCAR
   LVTOT  =      F    write LOCPOT, total local potential
   LVHAR  =      F    write LOCPOT, Hartree potential only
   LELF   =      F    write electronic localiz. function (ELF)
   LORBIT =      0    0 simple, 1 ext, 2 COOP (PROOUT)

 Dipole corrections
   LMONO  =      F    monopole corrections only (constant potential shift)
   LDIPOL =      F    correct potential (dipole corrections)
   IDIPOL =      0    1-x, 2-y, 3-z, 4-all directions
   EPSILON=  1.0000000 bulk dielectric constant

 Exchange correlation treatment:
   GGA     =    --    GGA type
   VOSKOWN=      0    Vosko Wilk Nusair interpolation
   LHFCALC =     F    Hartree Fock is set to
   LHFONE  =     F    Hartree Fock one center treatment
   AEXX    =    0.0000 exact exchange contribution

 Linear response parameters
   LEPSILON=     F    determine dielectric tensor
   LRPA    =     F    only Hartree local field effects (RPA)
   LNABLA  =     F    use nabla operator in PAW spheres
[...]
 k-point ** :  -0.0789 0.5000 0.5000  plane waves:    6944
 k-point ** :  -0.1053 0.5000 0.5000  plane waves:    6944
 k-point ** :  -0.1316 0.5000 0.5000  plane waves:    6936
 k-point ** :  -0.1579 0.5000 0.5000  plane waves:    6944
 k-point ** :  -0.1842 0.5000 0.5000  plane waves:    6952
 k-point ** :  -0.2105 0.5000 0.5000  plane waves:    6940
 k-point ** :  -0.2368 0.5000 0.5000  plane waves:    6944
 k-point ** :  -0.2632 0.5000 0.5000  plane waves:    6940
 k-point ** :  -0.2895 0.5000 0.5000  plane waves:    6948
 k-point ** :  -0.3158 0.5000 0.5000  plane waves:    6940
 k-point ** :  -0.3421 0.5000 0.5000  plane waves:    6932
 k-point ** :  -0.3684 0.5000 0.5000  plane waves:    6932
 k-point ** :  -0.3947 0.5000 0.5000  plane waves:    6928
 k-point ** :  -0.4211 0.5000 0.5000  plane waves:    6924
 k-point ** :  -0.4474 0.5000 0.5000  plane waves:    6916
 k-point ** :  -0.4737 0.5000 0.5000  plane waves:    6912
 k-point ** :  -0.5000 0.5000 0.5000  plane waves:    6920

 maximum and minimum number of plane-waves per node :      3528     3435

 maximum number of plane-waves:      7008
 maximum index in each direction:
   IXMAX=   15   IYMAX=   14   IZMAX=    7
   IXMIN=  -14   IYMIN=  -15   IZMIN=   -8

 NGX is ok and might be reduce to  60
 NGY is ok and might be reduce to  60
 WARNING: aliasing errors must be expected set NGZ to  32 to avoid them
 aliasing errors are usually negligible using standard VASP settings
 and one can safely disregard these warnings

 initial charge density was supplied:
 number of electron     120.0000012 magnetization
 keeping initial charge density in first step

 Maximum index for augmentation-charges         3537 (set IRDMAX)

 First call to EWALD:  gamma=   0.299
 Maximum number of real-space cells 2x 2x 4
 Maximum number of reciprocal cells 3x 3x 2

 FEWALD executed in parallel

----------------------------------------- Iteration    1(   1)  ---------------------------------------

 eigenvalue-minimisations  : 44784
 total energy-change (2. order) :-0.1190696E+03  (-0.7950991E+02)
 number of electron     120.0000012 magnetization
 augmentation part      120.0000012 magnetization

 Free energy of the ion-electron system (eV)
  alpha Z        PSCENC =       465.63813320
  Ewald energy   TEWEN  =     -5617.19384524
  -1/2 Hartree   DENC   =     -1632.79942333
  -exchange  EXHF       =         0.00000000
  -V(xc)+E(xc)   XCENC  =       452.82540772
  PAW double counting   =      4241.28005125    -4249.04975042
  entropy T*S    EENTRO =         0.00178360
  eigenvalues    EBANDS =      -789.77560184
  atomic energy  EATOM  =      7010.00360772
  free energy    TOTEN  =      -119.06963735 eV

  energy without entropy =     -119.07142094  energy(sigma->0) =     -119.07023188

[...]

----------------------------------------- Iteration    1(   7)  ---------------------------------------

 eigenvalue-minimisations  : 42768
 total energy-change (2. order) :-0.1530680E-08  (-0.1984886E-08)
 number of electron     120.0000012 magnetization
 augmentation part      120.0000012 magnetization

 Free energy of the ion-electron system (eV)
  alpha Z        PSCENC =       465.63813320
  Ewald energy   TEWEN  =     -5617.19384524
  -1/2 Hartree   DENC   =     -1632.79942333
  -exchange  EXHF       =         0.00000000
  -V(xc)+E(xc)   XCENC  =       452.82540772
  PAW double counting   =      4241.28005125    -4249.04975042
  entropy T*S    EENTRO =         0.00453978
  eigenvalues    EBANDS =      -853.54095593
  atomic energy  EATOM  =      7010.00360772
  free energy    TOTEN  =      -182.83223525 eV

  energy without entropy =     -182.83677504  energy(sigma->0) =     -182.83374852

 average (electrostatic) potential at core
  the test charge radii are     1.1707  0.7089
  (the norm of the test charge is              1.0000)
       1 -38.2592       2 -38.2592       3 -66.2460       4 -66.2460       5 -66.2460
       6 -66.2460       7 -66.2460       8 -66.2460       9 -66.2460      10 -66.2460
      11 -66.2458      12 -66.2458      13 -66.2458      14 -66.2458      15 -66.2458
      16 -66.2458      17 -66.2458      18 -66.2458      19 -65.7355      20 -65.7356
      21 -65.7358      22 -65.7358

 E-fermi :   5.3992     XC(G=0): -11.0730     alpha+bet :-10.8930

 k-point   1 :       0.0000    0.0000    0.0000
  band No.  band energies     occupation
      1     -26.2457      2.00000
      2     -26.2414      2.00000
      3     -26.2315      2.00000
      4     -26.2271      2.00000
      5     -26.2058      2.00000
      6     -26.2047      2.00000
      7     -19.6478      2.00000
      8     -19.3794      2.00000
      9     -19.3779      2.00000
     10     -19.3464      2.00000
     11     -18.0511      2.00000
     12     -17.9406      2.00000
     13     -14.3848      2.00000
     14     -14.0541      2.00000
     15     -14.0531      2.00000
     16     -13.8548      2.00000
     17     -12.3323      2.00000
     18     -12.3078      2.00000
     19     -12.3069      2.00000
     20     -12.2211      2.00000
     21      -6.8355      2.00000
     22      -6.2437      2.00000
     23      -6.2204      2.00000
     24      -5.8694      2.00000
     25      -5.8338      2.00000
     26      -4.9101      2.00000
     27      -4.7603      2.00000
     28      -4.6895      2.00000
     29      -4.4163      2.00000
     30      -3.8329      2.00000
     31      -3.6219      2.00000
     32      -2.9067      2.00000
     33      -2.7261      2.00000
     34      -2.7151      2.00000
     35      -2.3876      2.00000
     36      -2.3587      2.00000
     37      -2.0751      2.00000
     38      -1.8428      2.00000
     39      -1.7868      2.00000
     40      -1.6585      2.00000
     41      -1.1180      2.00000
     42      -0.8221      2.00000
     43      -0.5880      2.00000
     44      -0.4701      2.00000
     45      -0.3457      2.00000
     46       0.0486      2.00000
     47       0.4848      2.00000
     48       0.4864      2.00000
     49       0.5515      2.00000
     50       1.4434      2.00000
     51       1.4947      2.00000
     52       2.2967      2.00000
     53       2.3908      2.00000
     54       2.4415      2.00000
     55       2.7109      2.00000
     56       2.7365      2.00000
     57       2.7645      2.00000
     58       3.0015      2.00000
     59       3.3140      2.00000
     60       3.7546      2.00000
[...]
    146      27.6364      0.00000
    147      27.7179      0.00000
    148      27.7877      0.00000
    149      28.1244      0.00000
    150      28.2013      0.00000
    151      28.2452      0.00000
    152      28.6093      0.00000
    153      29.7566      0.00000
    154      31.1554      0.00000
    155      31.2154      0.00000
    156      31.5755      0.00000
    157      31.5957      0.00000
    158      32.1382      0.00000
    159      32.2167      0.00000
    160      32.7254      0.00000

[...]

 k-point 140 :      -0.5000    0.5000    0.5000
  band No.  band energies     occupation
      1     -26.2935      2.00000
      2     -26.2935      2.00000
      3     -26.2212      2.00000
      4     -26.2212      2.00000
      5     -26.2169      2.00000
      6     -26.2169      2.00000
      7     -18.1584      2.00000
      8     -18.1583      2.00000
      9     -17.7794      2.00000
     10     -17.7793      2.00000
     11     -17.7117      2.00000
     12     -17.7117      2.00000
     13     -17.6378      2.00000
     14     -17.6378      2.00000
     15     -17.5373      2.00000
     16     -17.5373      2.00000
     17      -9.0747      2.00000
     18      -9.0747      2.00000
     19      -8.8818      2.00000
     20      -8.8818      2.00000
     21      -8.8691      2.00000
     22      -8.8691      2.00000
     23      -8.8194      2.00000
     24      -8.8194      2.00000
     25      -4.4796      2.00000
     26      -4.4796      2.00000
     27      -2.9120      2.00000
     28      -2.9120      2.00000
     29      -2.4818      2.00000
     30      -2.4818      2.00000
     31      -2.0809      2.00000
     32      -2.0808      2.00000
     33      -2.0692      2.00000
     34      -2.0692      2.00000
     35      -1.7774      2.00000
     36      -1.7774      2.00000
     37      -1.6727      2.00000
     38      -1.6727      2.00000
     39      -1.4622      2.00000
     40      -1.4622      2.00000
     41      -1.1885      2.00000
     42      -1.1885      2.00000
     43      -0.5020      2.00000
     44      -0.5019      2.00000
     45      -0.3128      2.00000
     46      -0.3127      2.00000
     47      -0.1834      2.00000
     48      -0.1834      2.00000
     49       0.3187      2.00000
     50       0.3187      2.00000
     51       0.3301      2.00000
     52       0.3301      2.00000
     53       0.5340      2.00000
     54       0.5340      2.00000
     55       1.2720      2.00000
     56       1.2720      2.00000
     57       4.3748      2.00000
     58       4.3748      2.00000
     59       6.0350     -0.00007
     60       6.0350     -0.00007
[...]
    146      29.3687      0.00000
    147      29.5548      0.00000
    148      29.5548      0.00000
    149      30.3368      0.00000
    150      30.3368      0.00000
    151      30.3798      0.00000
    152      30.3799      0.00000
    153      30.4681      0.00000
    154      30.4681      0.00000
    155      31.3528      0.00000
    156      31.3531      0.00000
    157      31.6240      0.00000
    158      31.6293      0.00000
    159      31.8162      0.00000
    160      31.8195      0.00000

 soft charge-density along one line, spin component           1
         0         1         2         3         4         5         6         7         8         9
 total charge-density along one line

------------------------ aborting loop because EDIFF is reached ----------------------------------------

  FORCE on cell =-STRESS in cart. coord.  units (eV):
  Direction    XX          YY          ZZ          XY          YZ          ZX
  Alpha Z   465.63813   465.63813   465.63813
  Ewald   -2571.75918 -2683.70563  -361.74706     0.00000     0.00004     0.00000
  Hartree   296.72886   238.62480  1087.79418     0.00000     0.00000     0.00000
  E(xc)    -509.82182  -510.16542  -503.01082     0.00000     0.00000     0.00000
  Local     326.66365   491.34984 -2440.32040     0.00000    -0.00002     0.00000
  n-local  -327.63719  -326.78250  -345.94159     0.00000     0.00000     0.00000
  augment    52.75266    52.77627    48.52088     0.00000     0.00000     0.00000
  Kinetic  2264.90411  2268.74427  2045.00311     0.00000    -0.00001     0.00000
  Fock        0.00000     0.00000     0.00000     0.00000     0.00000     0.00000
  Total      -2.53079    -3.52025    -4.06356     0.00000     0.00000     0.00000
  in kB     -19.43806   -27.03773   -31.21067     0.00000     0.00000     0.00000

 VOLUME and BASIS-vectors are now :
  energy-cutoff  :      600.00
  volume of cell :      208.60
      direct lattice vectors                 reciprocal lattice vectors
     7.473438017  0.000000000  0.000000000     0.133807225  0.000000000  0.000000000
     0.000000000  7.432578968  0.000000000     0.000000000  0.134542802  0.000000000
     0.000000000  0.000000000  3.755379922     0.000000000  0.000000000  0.266284643

  length of vectors
     7.473438017  7.432578968  3.755379922     0.133807225  0.134542802  0.266284643

 FORCES acting on ions
    electron-ion (+dipol)            ewald-force                    non-local-force                 convergence-correction
   0.798E-13 0.204E-06 0.168E-01   0.339E-14 -.497E-05 -.196E-01   -.414E-24 0.662E-23 -.185E-02   -.990E-12 0.468E-05 0.347E-02
   -.806E-14 0.939E-07 0.168E-01   0.730E-14 -.226E-05 -.196E-01   0.000E+00 -.993E-23 -.185E-02   -.107E-11 0.434E-06 0.348E-02
   -.716E+02 0.622E+02 -.479E+02   0.906E+02 -.803E+02 0.649E+02   -.174E+02 0.165E+02 -.165E+02   -.169E+01 0.170E+01 -.332E+00
   0.716E+02 -.622E+02 -.479E+02   -.906E+02 0.803E+02 0.649E+02   0.174E+02 -.165E+02 -.165E+02   0.169E+01 -.170E+01 -.332E+00
   -.716E+02 -.622E+02 -.479E+02   0.906E+02 0.803E+02 0.649E+02   -.174E+02 -.165E+02 -.165E+02   -.169E+01 -.170E+01 -.332E+00
   0.716E+02 0.622E+02 -.479E+02   -.906E+02 -.803E+02 0.649E+02   0.174E+02 0.165E+02 -.165E+02   0.169E+01 0.170E+01 -.332E+00
   -.716E+02 0.622E+02 -.479E+02   0.906E+02 -.803E+02 0.649E+02   -.174E+02 0.165E+02 -.165E+02   -.169E+01 0.170E+01 -.332E+00
   0.716E+02 -.622E+02 -.479E+02   -.906E+02 0.803E+02 0.649E+02   0.174E+02 -.165E+02 -.165E+02   0.169E+01 -.170E+01 -.332E+00
   -.716E+02 -.622E+02 -.479E+02   0.906E+02 0.803E+02 0.649E+02   -.174E+02 -.165E+02 -.165E+02   -.169E+01 -.170E+01 -.332E+00
   0.716E+02 0.622E+02 -.479E+02   -.906E+02 -.803E+02 0.649E+02   0.174E+02 0.165E+02 -.165E+02   0.169E+01 0.170E+01 -.332E+00
   -.716E+02 0.621E+02 0.479E+02   0.906E+02 -.803E+02 -.649E+02   -.174E+02 0.165E+02 0.165E+02   -.169E+01 0.169E+01 0.331E+00
   0.716E+02 -.621E+02 0.479E+02   -.906E+02 0.803E+02 -.649E+02   0.174E+02 -.165E+02 0.165E+02   0.169E+01 -.169E+01 0.331E+00
   -.716E+02 -.621E+02 0.479E+02   0.906E+02 0.803E+02 -.649E+02   -.174E+02 -.165E+02 0.165E+02   -.169E+01 -.169E+01 0.331E+00
   0.716E+02 0.621E+02 0.479E+02   -.906E+02 -.803E+02 -.649E+02   0.174E+02 0.165E+02 0.165E+02   0.169E+01 0.169E+01 0.331E+00
   -.716E+02 0.621E+02 0.479E+02   0.906E+02 -.803E+02 -.649E+02   -.174E+02 0.165E+02 0.165E+02   -.169E+01 0.169E+01 0.331E+00
   0.716E+02 -.621E+02 0.479E+02   -.906E+02 0.803E+02 -.649E+02   0.174E+02 -.165E+02 0.165E+02   0.169E+01 -.169E+01 0.331E+00
   -.716E+02 -.621E+02 0.479E+02   0.906E+02 0.803E+02 -.649E+02   -.174E+02 -.165E+02 0.165E+02   -.169E+01 -.169E+01 0.331E+00
   0.716E+02 0.621E+02 0.479E+02   -.906E+02 -.803E+02 -.649E+02   0.174E+02 0.165E+02 0.165E+02   0.169E+01 0.169E+01 0.331E+00
   -.992E-15 0.246E-06 -.200E+03   -.163E-13 -.595E-05 0.247E+03   -.517E-25 0.000E+00 -.463E+02   0.139E-11 0.565E-05 -.165E-01
   0.143E-12 -.271E-07 -.200E+03   -.121E-13 0.645E-06 0.247E+03   0.000E+00 0.000E+00 -.463E+02   -.502E-12 -.688E-06 -.162E-01
   -.482E-15 0.172E-06 0.200E+03   0.400E-13 -.418E-05 -.247E+03   0.000E+00 0.000E+00 0.463E+02   0.248E-11 0.410E-05 0.166E-01
   0.111E-12 -.122E-07 0.200E+03   -.329E-13 0.277E-06 -.247E+03   0.000E+00 0.000E+00 0.463E+02   0.298E-12 -.393E-06 0.156E-01
   0.621E-11 0.174E-03 0.146E-01   0.639E-13 0.817E-13 -.853E-13   0.355E-14 -.711E-14 -.111E-01   -.387E-11 -.695E-04 -.154E-02

 POSITION                                       TOTAL-FORCE (eV/Angst)
      3.73672      3.71629      2.70696         0.000000      0.000000     -0.001273
      0.00000      0.00000      0.82927         0.000000      0.000000     -0.001273
      6.04957      1.43082      3.36978        -0.051192      0.068376      0.219799
      1.42386      6.00176      3.36978         0.051192     -0.068376      0.219799
      6.04957      6.00176      3.36978        -0.051192     -0.068376      0.219799
      1.42386      1.43082      3.36978         0.051192      0.068376      0.219799
      2.31285      5.14711      1.49209        -0.051192      0.068376      0.219799
      5.16058      2.28547      1.49209         0.051192     -0.068376      0.219799
      2.31285      2.28547      1.49209        -0.051192     -0.068376      0.219799
      5.16058      5.14711      1.49209         0.051192      0.068376      0.219799
      6.04966      1.43089      2.04393        -0.051189      0.068133     -0.219544
      1.42378      6.00168      2.04393         0.051189     -0.068133     -0.219544
      6.04966      6.00168      2.04393        -0.051189     -0.068133     -0.219544
      1.42378      1.43089      2.04393         0.051189      0.068133     -0.219544
      2.31294      5.14718      0.16624        -0.051189      0.068133     -0.219544
      5.16050      2.28539      0.16624         0.051189     -0.068133     -0.219544
      2.31294      2.28539      0.16624        -0.051189     -0.068133     -0.219544
      5.16050      5.14718      0.16624         0.051189      0.068133     -0.219544
      0.00000      3.71629      1.38441         0.000000      0.000000     -0.083834
      3.73672      0.00000      3.26210         0.000000      0.000000     -0.083834
      0.00000      3.71629      0.27110         0.000000      0.000000      0.084089
      3.73672      0.00000      2.14879         0.000000      0.000000      0.084089
    total drift:                                0.000000      0.000105      0.001960

  FREE ENERGIE OF THE ION-ELECTRON SYSTEM (eV)
  free  energy   TOTEN  =      -182.83223525 eV

  energy  without entropy=     -182.83677504  energy(sigma->0) =     -182.83374852

 writing wavefunctions